Set parameter TokenServer to value "hpc-licenses.hpcc.usc.edu"
Set parameter TimeLimit to value 3600
Gurobi Optimizer version 9.5.1 build v9.5.1rc2 (linux64)
Thread count: 20 physical cores, 20 logical processors, using up to 20 threads
Optimize a model with 6007 rows, 4529 columns and 24534 nonzeros
Model fingerprint: 0xdb36e260
Variable types: 4506 continuous, 23 integer (23 binary)
Coefficient statistics:
  Matrix range     [1e+00, 1e+00]
  Objective range  [3e-03, 1e+00]
  Bounds range     [1e+00, 1e+00]
  RHS range        [1e+00, 2e+02]
Found heuristic solution: objective 219.6632391
Presolve removed 1520 rows and 1515 columns
Presolve time: 0.06s
Presolved: 4487 rows, 3014 columns, 21975 nonzeros
Variable types: 2994 continuous, 20 integer (20 binary)

Root relaxation: objective 2.359122e+02, 2785 iterations, 0.12 seconds (0.15 work units)

    Nodes    |    Current Node    |     Objective Bounds      |     Work
 Expl Unexpl |  Obj  Depth IntInf | Incumbent    BestBd   Gap | It/Node Time

     0     0  235.91225    0    2  219.66324  235.91225  7.40%     -    0s
H    0     0                     222.9282948  235.91225  5.82%     -    0s
     0     0  235.74619    0    3  222.92829  235.74619  5.75%     -    0s
H    0     0                     223.7039647  235.68519  5.36%     -    0s
     0     0  235.68501    0    2  223.70396  235.68501  5.36%     -    0s
H    0     0                     235.3436221  235.68501  0.15%     -    0s
     0     0  235.66804    0    4  235.34362  235.66804  0.14%     -    0s
     0     0  235.66804    0    2  235.34362  235.66804  0.14%     -    0s
     0     0  235.66804    0    2  235.34362  235.66804  0.14%     -    1s
     0     0  235.34362    0    4  235.34362  235.34362  0.00%     -    1s

Cutting planes:
  Gomory: 6
  MIR: 535
  Flow cover: 5
  RLT: 4

Explored 1 nodes (5053 simplex iterations) in 1.40 seconds (0.61 work units)
Thread count was 20 (of 20 available processors)

Solution count 4: 235.344 223.704 222.928 219.663 

Optimal solution found (tolerance 1.00e-04)
Best objective 2.353436220725e+02, best bound 2.353436220725e+02, gap 0.0000%



#########node  1
V1.6
#########node  2
0.044117647058823525,0.9558823529411765
#########node  3
1.0,0.0


Total Solving Time 1.806746006011963
obj value 235.343622072528
Policy Regret train (Sum) 1.948859407221686
Best Treatment Found train (%) 79.80000000000001
treatment classification acc train (%) 31.2
Policy Regret test (Sum) 33.257454375572316
Best Treatment Found test (%) 81.92
treatment classification acc test (%) 29.880000000000003
